10
2147483647 28 84 94 24 39 96 75 36 22 
28 2147483647 34 59 79 61 32 22 56 70 
84 34 2147483647 91 63 42 72 4 77 54 
94 59 91 2147483647 82 42 22 23 39 12 
24 79 63 82 2147483647 94 38 74 10 35 
39 61 42 42 94 2147483647 45 74 36 70 
96 32 72 22 38 45 2147483647 82 75 19 
75 22 4 23 74 74 82 2147483647 85 43 
36 56 77 39 10 36 75 85 2147483647 40 
22 70 54 12 35 70 19 43 40 2147483647 
